NAME: random-65-21806
TYPE: TSP
COMMENT: size=65 seed=21806
DIMENSION: 132
EDGE_WEIGHT_TYPE: EUC_2D
NODE_COORD_SECTION
+0 442 98
-0 442 98
+1 381 454
-1 289 127
+2 574 947
-2 426 68
+3 912 661
-3 767 568
+4 717 525
-4 120 593
+5 577 389
-5 33 559
+6 563 968
-6 559 495
+7 759 380
-7 232 616
+8 891 557
-8 863 619
+9 709 476
-9 4 724
+10 660 657
-10 332 547
+11 981 622
-11 637 69
+12 302 890
-12 848 519
+13 600 746
-13 810 330
+14 568 598
-14 758 778
+15 210 149
-15 568 812
+16 48 681
-16 921 82
+17 866 622
-17 242 414
+18 636 356
-18 693 915
+19 985 492
-19 115 849
+20 693 513
-20 112 42
+21 698 801
-21 692 378
+22 788 916
-22 533 825
+23 892 668
-23 929 987
+24 801 819
-24 844 538
+25 554 641
-25 512 832
+26 678 693
-26 103 142
+27 826 381
-27 550 87
+28 299 369
-28 435 621
+29 951 161
-29 360 4
+30 912 353
-30 709 450
+31 228 942
-31 281 723
+32 68 544
-32 625 144
+33 226 233
-33 991 988
+34 811 473
-34 638 820
+35 591 835
-35 659 132
+36 169 29
-36 316 528
+37 451 992
-37 86 809
+38 614 429
-38 157 251
+39 273 513
-39 345 939
+40 750 153
-40 895 116
+41 982 97
-41 220 152
+42 976 695
-42 736 700
+43 755 36
-43 61 538
+44 154 92
-44 319 866
+45 523 188
-45 799 982
+46 859 939
-46 883 417
+47 400 683
-47 492 504
+48 886 421
-48 543 291
+49 837 207
-49 14 511
+50 783 906
-50 633 459
+51 138 614
-51 553 199
+52 229 866
-52 693 124
+53 985 196
-53 687 631
+54 628 180
-54 435 598
+55 970 399
-55 329 69
+56 470 167
-56 771 602
+57 39 370
-57 825 31
+58 697 459
-58 990 556
+59 789 15
-59 610 180
+60 446 294
-60 612 753
+61 764 648
-61 314 245
+62 738 106
-62 500 935
+63 887 162
-63 233 418
+64 964 706
-64 661 298
+65 388 360
-65 787 126
PRECEDENCE_SECTION
+0 -0
+1 -1
+2 -2
+3 -3
+4 -4
+5 -5
+6 -6
+7 -7
+8 -8
+9 -9
+10 -10
+11 -11
+12 -12
+13 -13
+14 -14
+15 -15
+16 -16
+17 -17
+18 -18
+19 -19
+20 -20
+21 -21
+22 -22
+23 -23
+24 -24
+25 -25
+26 -26
+27 -27
+28 -28
+29 -29
+30 -30
+31 -31
+32 -32
+33 -33
+34 -34
+35 -35
+36 -36
+37 -37
+38 -38
+39 -39
+40 -40
+41 -41
+42 -42
+43 -43
+44 -44
+45 -45
+46 -46
+47 -47
+48 -48
+49 -49
+50 -50
+51 -51
+52 -52
+53 -53
+54 -54
+55 -55
+56 -56
+57 -57
+58 -58
+59 -59
+60 -60
+61 -61
+62 -62
+63 -63
+64 -64
+65 -65
EOF
